$PAR NUM_THREADS=16 N_MOL=1 RHF=0 MP2=0 CAS=1 D5=1 RI=1 NAME=ferrocene $PAREND
$MOL
_CHARGE=0;
_BASIS=cc-pvtz;
_RI_BASIS=def2-universal-jkfit; 
_UNITS= ang;
_xyz
  21
  Ferrocene (Sayfutyarova et al. JCTC 2017)
  Fe 0.000000 0.000000 0.000000
  C -0.713500 -0.982049 -1.648000
  C 0.713500 -0.982049 -1.648000
  C 1.154467 0.375109 -1.648000
  C 0.000000 1.213879 -1.648000
  C -1.154467 0.375109 -1.648000
  H -1.347694 -1.854942 -1.638208
  H 1.347694 -1.854942 -1.638208
  H 2.180615 0.708525 -1.638208
  H 0.000000 2.292835 -1.638208
  H -2.180615 0.708525 -1.638208
  C -0.713500 -0.982049 1.648000
  C -1.154467 0.375109 1.648000
  C 0.000000 1.213879 1.648000
  C 1.154467 0.375109 1.648000
  C 0.713500 -0.982049 1.648000
  H -1.347694 -1.854942 1.638208
  H -2.180615 0.708525 1.638208
  H 0.000000 2.292835 1.638208
  H 2.180615 0.708525 1.638208
  H 1.347694 -1.854942 1.638208
$END
$act_space n_alp=5 n_bet=5 n_val=7 mult=1 $end
_MO INP=ferrocene_RHF.orb
$CAS n_s=7 w_state=all_1; cisolver=aldet maxit=50 dE=1e-12 grad=1e-6 $END
$AVAS atoms=1; shells=3d; $END
$DAV dr=1E-12 de=1e-10 $end
